GLPSOL--GLPK LP/MIP Solver 5.0
Parameter(s) specified in the command line:
 --cpxlp --first inputs/new_no_tr/order/triang7_0_tiers_input.lp -o solutions/new_no_tr/triang7_0_tiers_input.lp
Reading problem data from 'inputs/new_no_tr/order/triang7_0_tiers_input.lp'...
inputs/new_no_tr/order/triang7_0_tiers_input.lp:4167: warning: lower bound of variable 'm_0_0' redefined
inputs/new_no_tr/order/triang7_0_tiers_input.lp:4167: warning: upper bound of variable 'm_0_0' redefined
3991 rows, 1597 columns, 11607 non-zeros
1597 integer variables, 1428 of which are binary
5735 lines were read
GLPK Integer Optimizer 5.0
3991 rows, 1597 columns, 11607 non-zeros
1597 integer variables, 1428 of which are binary
Preprocessing...
42 hidden packing inequaliti(es) were detected
84 hidden covering inequaliti(es) were detected
672 constraint coefficient(s) were reduced
3559 rows, 1342 columns, 10123 non-zeros
1342 integer variables, 1313 of which are binary
Scaling...
 A: min|aij| =  1.000e+00  max|aij| =  9.900e+01  ratio =  9.900e+01
GM: min|aij| =  4.347e-01  max|aij| =  2.300e+00  ratio =  5.292e+00
EQ: min|aij| =  1.890e-01  max|aij| =  1.000e+00  ratio =  5.292e+00
2N: min|aij| =  1.250e-01  max|aij| =  1.438e+00  ratio =  1.150e+01
Constructing initial basis...
Size of triangular part is 3223
Solving LP relaxation...
GLPK Simplex Optimizer 5.0
3559 rows, 1342 columns, 10123 non-zeros
      0: obj =   2.320000000e+02 inf =   1.510e+02 (129)
   1263: obj =   3.616718939e+02 inf =   6.212e-15 (0) 12
*  2139: obj =   2.532308952e+02 inf =   4.552e-15 (0) 8
OPTIMAL LP SOLUTION FOUND
Integer optimization begins...
Long-step dual simplex will be used
+  2139: mip =     not found yet >=              -inf        (1; 0)
+ 21956: mip =     not found yet >=   2.630000000e+02        (19; 16)
+ 42672: mip =     not found yet >=   2.640000000e+02        (26; 28)
+ 61906: mip =     not found yet >=   2.640000000e+02        (32; 38)
+ 81553: mip =     not found yet >=   2.760000000e+02        (39; 53)
+101504: mip =     not found yet >=   2.760000000e+02        (50; 65)
+121161: mip =     not found yet >=   2.770000000e+02        (53; 77)
+141570: mip =     not found yet >=   2.770000000e+02        (54; 93)
+161494: mip =     not found yet >=   2.790000000e+02        (58; 109)
+182309: mip =     not found yet >=   2.790000000e+02        (59; 123)
+201538: mip =     not found yet >=   2.790000000e+02        (65; 133)
+221313: mip =     not found yet >=   2.790000000e+02        (66; 146)
Time used: 60.5 secs.  Memory used: 5.7 Mb.
+242154: mip =     not found yet >=   2.790000000e+02        (68; 158)
+263287: mip =     not found yet >=   2.790000000e+02        (81; 172)
+284325: mip =     not found yet >=   2.800000000e+02        (104; 206)
+306051: mip =     not found yet >=   2.800000000e+02        (156; 245)
+328050: mip =     not found yet >=   2.800000000e+02        (201; 292)
+350466: mip =     not found yet >=   2.800000000e+02        (264; 324)
+371634: mip =     not found yet >=   2.800000000e+02        (290; 362)
+392776: mip =     not found yet >=   2.800000000e+02        (349; 383)
+415244: mip =     not found yet >=   2.800000000e+02        (400; 414)
+437741: mip =     not found yet >=   2.800000000e+02        (436; 443)
+460520: mip =     not found yet >=   2.800000000e+02        (503; 480)
+483000: mip =     not found yet >=   2.800000000e+02        (563; 562)
Time used: 120.7 secs.  Memory used: 10.5 Mb.
+506145: mip =     not found yet >=   2.800000000e+02        (631; 612)
+530149: mip =     not found yet >=   2.800000000e+02        (692; 656)
+552484: mip =     not found yet >=   2.800000000e+02        (758; 724)
+575229: mip =     not found yet >=   2.800000000e+02        (818; 779)
+597319: mip =     not found yet >=   2.800000000e+02        (879; 847)
+619927: mip =     not found yet >=   2.800000000e+02        (929; 900)
+643076: mip =     not found yet >=   2.800000000e+02        (982; 969)
+667317: mip =     not found yet >=   2.800000000e+02        (1034; 1025)
+690635: mip =     not found yet >=   2.800000000e+02        (1107; 1073)
+713302: mip =     not found yet >=   2.800000000e+02        (1160; 1120)
+737028: mip =     not found yet >=   2.800000000e+02        (1204; 1153)
+758243: mip =     not found yet >=   2.800000000e+02        (1241; 1205)
Time used: 180.8 secs.  Memory used: 16.7 Mb.
+779441: mip =     not found yet >=   2.800000000e+02        (1269; 1251)
+802097: mip =     not found yet >=   2.800000000e+02        (1315; 1295)
+823506: mip =     not found yet >=   2.800000000e+02        (1349; 1327)
+845515: mip =     not found yet >=   2.800000000e+02        (1382; 1352)
+867385: mip =     not found yet >=   2.800000000e+02        (1414; 1365)
+888095: mip =     not found yet >=   2.800000000e+02        (1428; 1380)
+910652: mip =     not found yet >=   2.800000000e+02        (1460; 1409)
+931747: mip =     not found yet >=   2.800000000e+02        (1488; 1425)
+952714: mip =     not found yet >=   2.800000000e+02        (1519; 1436)
+975539: mip =     not found yet >=   2.800000000e+02        (1552; 1465)
+998338: mip =     not found yet >=   2.800000000e+02        (1592; 1490)
+1014177: >>>>>   4.540000000e+02 >=   2.800000000e+02  38.3% (1648; 1523)
Time used: 241.0 secs.  Memory used: 20.4 Mb.
+1036407: mip =   4.540000000e+02 >=   2.800000000e+02  38.3% (1693; 1559)
+1057644: mip =   4.540000000e+02 >=   2.800000000e+02  38.3% (1752; 1606)
+1080033: mip =   4.540000000e+02 >=   2.800000000e+02  38.3% (1788; 1673)
+1101893: mip =   4.540000000e+02 >=   2.800000000e+02  38.3% (1810; 1700)
+1123054: mip =   4.540000000e+02 >=   2.800000000e+02  38.3% (1836; 1720)
+1145441: mip =   4.540000000e+02 >=   2.800000000e+02  38.3% (1869; 1747)
+1167386: mip =   4.540000000e+02 >=   2.800000000e+02  38.3% (1901; 1765)
+1189206: mip =   4.540000000e+02 >=   2.800000000e+02  38.3% (1937; 1772)
+1210052: mip =   4.540000000e+02 >=   2.800000000e+02  38.3% (1968; 1787)
+1231962: mip =   4.540000000e+02 >=   2.800000000e+02  38.3% (1985; 1799)
+1252540: mip =   4.540000000e+02 >=   2.800000000e+02  38.3% (2008; 1806)
+1274036: mip =   4.540000000e+02 >=   2.800000000e+02  38.3% (2035; 1821)
Time used: 301.0 secs.  Memory used: 23.8 Mb.
+1295782: mip =   4.540000000e+02 >=   2.800000000e+02  38.3% (2067; 1830)
+1317462: mip =   4.540000000e+02 >=   2.800000000e+02  38.3% (2076; 1852)
+1338157: mip =   4.540000000e+02 >=   2.800000000e+02  38.3% (2099; 1858)
+1359079: mip =   4.540000000e+02 >=   2.800000000e+02  38.3% (2133; 1868)
+1380678: mip =   4.540000000e+02 >=   2.800000000e+02  38.3% (2177; 1876)
+1401339: mip =   4.540000000e+02 >=   2.800000000e+02  38.3% (2193; 1892)
+1423429: mip =   4.540000000e+02 >=   2.800000000e+02  38.3% (2230; 1925)
+1444616: mip =   4.540000000e+02 >=   2.800000000e+02  38.3% (2274; 1963)
+1467077: mip =   4.540000000e+02 >=   2.800000000e+02  38.3% (2313; 2021)
+1489124: mip =   4.540000000e+02 >=   2.800000000e+02  38.3% (2354; 2053)
+1510252: mip =   4.540000000e+02 >=   2.800000000e+02  38.3% (2376; 2076)
Time used: 361.1 secs.  Memory used: 27.0 Mb.
+1530219: mip =   4.540000000e+02 >=   2.800000000e+02  38.3% (2395; 2084)
+1551563: mip =   4.540000000e+02 >=   2.800000000e+02  38.3% (2414; 2096)
+1572850: mip =   4.540000000e+02 >=   2.800000000e+02  38.3% (2442; 2101)
+1594147: mip =   4.540000000e+02 >=   2.800000000e+02  38.3% (2479; 2110)
+1614011: mip =   4.540000000e+02 >=   2.800000000e+02  38.3% (2488; 2123)
+1634385: mip =   4.540000000e+02 >=   2.800000000e+02  38.3% (2519; 2137)
+1640446: >>>>>   4.460000000e+02 >=   2.800000000e+02  37.2% (2536; 2137)
+1660415: mip =   4.460000000e+02 >=   2.800000000e+02  37.2% (2555; 2155)
+1681842: mip =   4.460000000e+02 >=   2.800000000e+02  37.2% (2609; 2190)
+1703645: mip =   4.460000000e+02 >=   2.800000000e+02  37.2% (2657; 2251)
+1726304: mip =   4.460000000e+02 >=   2.800000000e+02  37.2% (2706; 2306)
+1748790: mip =   4.460000000e+02 >=   2.800000000e+02  37.2% (2754; 2338)
+1770846: mip =   4.460000000e+02 >=   2.800000000e+02  37.2% (2802; 2400)
Time used: 421.2 secs.  Memory used: 30.9 Mb.
+1793370: mip =   4.460000000e+02 >=   2.800000000e+02  37.2% (2843; 2437)
+1814875: mip =   4.460000000e+02 >=   2.800000000e+02  37.2% (2912; 2512)
+1836604: mip =   4.460000000e+02 >=   2.800000000e+02  37.2% (2975; 2570)
+1857950: mip =   4.460000000e+02 >=   2.800000000e+02  37.2% (3006; 2624)
+1878710: mip =   4.460000000e+02 >=   2.800000000e+02  37.2% (3033; 2658)
+1901709: mip =   4.460000000e+02 >=   2.800000000e+02  37.2% (3088; 2695)
+1922077: mip =   4.460000000e+02 >=   2.800000000e+02  37.2% (3113; 2719)
+1942365: mip =   4.460000000e+02 >=   2.800000000e+02  37.2% (3134; 2740)
+1963768: mip =   4.460000000e+02 >=   2.800000000e+02  37.2% (3154; 2757)
+1984564: mip =   4.460000000e+02 >=   2.800000000e+02  37.2% (3175; 2769)
+2005763: mip =   4.460000000e+02 >=   2.800000000e+02  37.2% (3208; 2776)
+2027325: mip =   4.460000000e+02 >=   2.800000000e+02  37.2% (3229; 2802)
Time used: 481.3 secs.  Memory used: 34.6 Mb.
+2049445: mip =   4.460000000e+02 >=   2.800000000e+02  37.2% (3260; 2828)
+2070974: mip =   4.460000000e+02 >=   2.800000000e+02  37.2% (3284; 2847)
+2092476: mip =   4.460000000e+02 >=   2.800000000e+02  37.2% (3309; 2866)
+2113369: mip =   4.460000000e+02 >=   2.800000000e+02  37.2% (3350; 2877)
+2134213: mip =   4.460000000e+02 >=   2.800000000e+02  37.2% (3383; 2886)
+2155930: mip =   4.460000000e+02 >=   2.800000000e+02  37.2% (3402; 2899)
+2176459: mip =   4.460000000e+02 >=   2.800000000e+02  37.2% (3420; 2908)
+2197536: mip =   4.460000000e+02 >=   2.800000000e+02  37.2% (3451; 2916)
+2218413: mip =   4.460000000e+02 >=   2.800000000e+02  37.2% (3463; 2928)
+2240516: mip =   4.460000000e+02 >=   2.800000000e+02  37.2% (3513; 2951)
+2262266: mip =   4.460000000e+02 >=   2.800000000e+02  37.2% (3529; 2960)
Time used: 541.3 secs.  Memory used: 36.6 Mb.
+2283651: mip =   4.460000000e+02 >=   2.800000000e+02  37.2% (3556; 2977)
+2304825: mip =   4.460000000e+02 >=   2.800000000e+02  37.2% (3572; 3007)
+2325466: mip =   4.460000000e+02 >=   2.800000000e+02  37.2% (3596; 3011)
+2345976: mip =   4.460000000e+02 >=   2.800000000e+02  37.2% (3614; 3024)
+2367895: mip =   4.460000000e+02 >=   2.800000000e+02  37.2% (3650; 3034)
+2389690: mip =   4.460000000e+02 >=   2.800000000e+02  37.2% (3672; 3046)
+2410453: mip =   4.460000000e+02 >=   2.810000000e+02  37.0% (3690; 3068)
+2429730: mip =   4.460000000e+02 >=   2.810000000e+02  37.0% (3703; 3094)
+2449579: mip =   4.460000000e+02 >=   2.810000000e+02  37.0% (3721; 3107)
+2469392: mip =   4.460000000e+02 >=   2.810000000e+02  37.0% (3736; 3115)
+2489717: mip =   4.460000000e+02 >=   2.810000000e+02  37.0% (3758; 3122)
+2509794: mip =   4.460000000e+02 >=   2.810000000e+02  37.0% (3765; 3136)
Time used: 601.5 secs.  Memory used: 38.4 Mb.
+2530903: mip =   4.460000000e+02 >=   2.810000000e+02  37.0% (3781; 3144)
+2551141: mip =   4.460000000e+02 >=   2.810000000e+02  37.0% (3808; 3150)
+2571024: mip =   4.460000000e+02 >=   2.810000000e+02  37.0% (3834; 3161)
+2591684: mip =   4.460000000e+02 >=   2.810000000e+02  37.0% (3863; 3185)
+2611914: mip =   4.460000000e+02 >=   2.810000000e+02  37.0% (3884; 3202)
+2633354: mip =   4.460000000e+02 >=   2.820000000e+02  36.8% (3917; 3231)
+2656279: mip =   4.460000000e+02 >=   2.820000000e+02  36.8% (3960; 3264)
+2679342: mip =   4.460000000e+02 >=   2.820000000e+02  36.8% (4012; 3287)
+2700855: mip =   4.460000000e+02 >=   2.820000000e+02  36.8% (4044; 3301)
+2722764: mip =   4.460000000e+02 >=   2.820000000e+02  36.8% (4070; 3318)
+2743962: mip =   4.460000000e+02 >=   2.820000000e+02  36.8% (4100; 3344)
+2765745: mip =   4.460000000e+02 >=   2.820000000e+02  36.8% (4144; 3391)
Time used: 661.5 secs.  Memory used: 40.7 Mb.
+2787254: mip =   4.460000000e+02 >=   2.820000000e+02  36.8% (4202; 3429)
+2808673: mip =   4.460000000e+02 >=   2.820000000e+02  36.8% (4250; 3485)
+2830993: mip =   4.460000000e+02 >=   2.820000000e+02  36.8% (4319; 3557)
+2853665: mip =   4.460000000e+02 >=   2.820000000e+02  36.8% (4363; 3605)
+2875690: mip =   4.460000000e+02 >=   2.820000000e+02  36.8% (4415; 3642)
+2897037: mip =   4.460000000e+02 >=   2.820000000e+02  36.8% (4464; 3707)
+2919032: mip =   4.460000000e+02 >=   2.820000000e+02  36.8% (4506; 3750)
+2942029: mip =   4.460000000e+02 >=   2.820000000e+02  36.8% (4565; 3800)
+2965047: mip =   4.460000000e+02 >=   2.820000000e+02  36.8% (4617; 3842)
+2986441: mip =   4.460000000e+02 >=   2.820000000e+02  36.8% (4658; 3884)
+3007711: mip =   4.460000000e+02 >=   2.820000000e+02  36.8% (4708; 3902)
+3029387: mip =   4.460000000e+02 >=   2.820000000e+02  36.8% (4743; 3937)
Time used: 721.6 secs.  Memory used: 45.0 Mb.
+3050228: mip =   4.460000000e+02 >=   2.820000000e+02  36.8% (4786; 3970)
+3073425: mip =   4.460000000e+02 >=   2.820000000e+02  36.8% (4825; 4005)
+3095571: mip =   4.460000000e+02 >=   2.820000000e+02  36.8% (4880; 4025)
+3118413: mip =   4.460000000e+02 >=   2.820000000e+02  36.8% (4926; 4056)
+3139888: mip =   4.460000000e+02 >=   2.820000000e+02  36.8% (4958; 4093)
+3162246: mip =   4.460000000e+02 >=   2.820000000e+02  36.8% (4995; 4125)
+3183929: mip =   4.460000000e+02 >=   2.820000000e+02  36.8% (5029; 4133)
+3205579: mip =   4.460000000e+02 >=   2.830000000e+02  36.5% (5064; 4178)
+3227714: mip =   4.460000000e+02 >=   2.830000000e+02  36.5% (5108; 4200)
+3250321: mip =   4.460000000e+02 >=   2.830000000e+02  36.5% (5163; 4247)
+3264595: >>>>>   3.710000000e+02 >=   2.830000000e+02  23.7% (5202; 4265)
+3285512: mip =   3.710000000e+02 >=   2.830000000e+02  23.7% (5125; 4578)
Time used: 781.9 secs.  Memory used: 47.9 Mb.
+3306981: mip =   3.710000000e+02 >=   2.830000000e+02  23.7% (5145; 4603)
+3328131: mip =   3.710000000e+02 >=   2.830000000e+02  23.7% (5157; 4639)
+3349817: mip =   3.710000000e+02 >=   2.830000000e+02  23.7% (5187; 4660)
+3371962: mip =   3.710000000e+02 >=   2.830000000e+02  23.7% (5228; 4681)
+3393477: mip =   3.710000000e+02 >=   2.830000000e+02  23.7% (5261; 4702)
+3415526: mip =   3.710000000e+02 >=   2.830000000e+02  23.7% (5317; 4717)
+3437224: mip =   3.710000000e+02 >=   2.830000000e+02  23.7% (5356; 4731)
+3458781: mip =   3.710000000e+02 >=   2.830000000e+02  23.7% (5389; 4763)
+3480221: mip =   3.710000000e+02 >=   2.830000000e+02  23.7% (5408; 4784)
+3501467: mip =   3.710000000e+02 >=   2.830000000e+02  23.7% (5433; 4805)
+3523092: mip =   3.710000000e+02 >=   2.830000000e+02  23.7% (5501; 4836)
+3545196: mip =   3.710000000e+02 >=   2.830000000e+02  23.7% (5543; 4858)
Time used: 841.9 secs.  Memory used: 50.6 Mb.
+3566804: mip =   3.710000000e+02 >=   2.830000000e+02  23.7% (5586; 4880)
+3588035: mip =   3.710000000e+02 >=   2.830000000e+02  23.7% (5627; 4915)
+3609302: mip =   3.710000000e+02 >=   2.830000000e+02  23.7% (5655; 4944)
+3631764: mip =   3.710000000e+02 >=   2.830000000e+02  23.7% (5683; 4984)
+3654366: mip =   3.710000000e+02 >=   2.830000000e+02  23.7% (5723; 5023)
+3675638: mip =   3.710000000e+02 >=   2.830000000e+02  23.7% (5738; 5063)
+3697498: mip =   3.710000000e+02 >=   2.830000000e+02  23.7% (5763; 5087)
+3719829: mip =   3.710000000e+02 >=   2.830000000e+02  23.7% (5798; 5119)
+3741234: mip =   3.710000000e+02 >=   2.830000000e+02  23.7% (5827; 5134)
+3763772: mip =   3.710000000e+02 >=   2.830000000e+02  23.7% (5884; 5178)
+3785421: mip =   3.710000000e+02 >=   2.830000000e+02  23.7% (5921; 5202)
Time used: 902.0 secs.  Memory used: 54.5 Mb.
+3807773: mip =   3.710000000e+02 >=   2.830000000e+02  23.7% (5963; 5222)
+3830213: mip =   3.710000000e+02 >=   2.830000000e+02  23.7% (5981; 5245)
+3851826: mip =   3.710000000e+02 >=   2.830000000e+02  23.7% (6001; 5285)
+3874027: mip =   3.710000000e+02 >=   2.830000000e+02  23.7% (6029; 5329)
+3895764: mip =   3.710000000e+02 >=   2.830000000e+02  23.7% (6063; 5365)
+3917297: mip =   3.710000000e+02 >=   2.830000000e+02  23.7% (6075; 5395)
+3940737: mip =   3.710000000e+02 >=   2.830000000e+02  23.7% (6125; 5438)
+3963152: mip =   3.710000000e+02 >=   2.840000000e+02  23.5% (6143; 5478)
+3983703: mip =   3.710000000e+02 >=   2.840000000e+02  23.5% (6157; 5502)
+4004399: mip =   3.710000000e+02 >=   2.840000000e+02  23.5% (6176; 5531)
+4025184: mip =   3.710000000e+02 >=   2.840000000e+02  23.5% (6198; 5543)
+4046009: mip =   3.710000000e+02 >=   2.840000000e+02  23.5% (6214; 5561)
Time used: 962.2 secs.  Memory used: 57.5 Mb.
+4066503: mip =   3.710000000e+02 >=   2.840000000e+02  23.5% (6213; 5597)
+4086792: mip =   3.710000000e+02 >=   2.840000000e+02  23.5% (6228; 5627)
+4107297: mip =   3.710000000e+02 >=   2.850000000e+02  23.2% (6246; 5637)
+4128290: mip =   3.710000000e+02 >=   2.850000000e+02  23.2% (6267; 5653)
+4149769: mip =   3.710000000e+02 >=   2.850000000e+02  23.2% (6281; 5674)
+4170078: mip =   3.710000000e+02 >=   2.850000000e+02  23.2% (6295; 5690)
+4190820: mip =   3.710000000e+02 >=   2.850000000e+02  23.2% (6306; 5714)
+4211935: mip =   3.710000000e+02 >=   2.850000000e+02  23.2% (6323; 5739)
+4232440: mip =   3.710000000e+02 >=   2.850000000e+02  23.2% (6304; 5797)
+4253804: mip =   3.710000000e+02 >=   2.860000000e+02  22.9% (6298; 5833)
+4274382: mip =   3.710000000e+02 >=   2.860000000e+02  22.9% (6304; 5845)
+4294764: mip =   3.710000000e+02 >=   2.860000000e+02  22.9% (6325; 5858)
Time used: 1022.3 secs.  Memory used: 58.9 Mb.
+4314890: mip =   3.710000000e+02 >=   2.860000000e+02  22.9% (6338; 5891)
+4335631: mip =   3.710000000e+02 >=   2.870000000e+02  22.6% (6374; 5914)
+4357194: mip =   3.710000000e+02 >=   2.870000000e+02  22.6% (6426; 5951)
+4377939: mip =   3.710000000e+02 >=   2.870000000e+02  22.6% (6437; 5999)
+4398994: mip =   3.710000000e+02 >=   2.870000000e+02  22.6% (6449; 6020)
+4420093: mip =   3.710000000e+02 >=   2.870000000e+02  22.6% (6472; 6050)
+4441161: mip =   3.710000000e+02 >=   2.870000000e+02  22.6% (6478; 6070)
+4462106: mip =   3.710000000e+02 >=   2.870000000e+02  22.6% (6479; 6093)
+4482671: mip =   3.710000000e+02 >=   2.870000000e+02  22.6% (6498; 6106)
+4503897: mip =   3.710000000e+02 >=   2.870000000e+02  22.6% (6508; 6126)
+4524518: mip =   3.710000000e+02 >=   2.870000000e+02  22.6% (6518; 6144)
+4545116: mip =   3.710000000e+02 >=   2.870000000e+02  22.6% (6525; 6160)
Time used: 1082.5 secs.  Memory used: 60.8 Mb.
+4565752: mip =   3.710000000e+02 >=   2.870000000e+02  22.6% (6524; 6180)
+4587774: mip =   3.710000000e+02 >=   2.870000000e+02  22.6% (6542; 6200)
+4607954: mip =   3.710000000e+02 >=   2.870000000e+02  22.6% (6553; 6217)
+4629628: mip =   3.710000000e+02 >=   2.870000000e+02  22.6% (6584; 6233)
+4650451: mip =   3.710000000e+02 >=   2.870000000e+02  22.6% (6624; 6251)
+4670412: mip =   3.710000000e+02 >=   2.870000000e+02  22.6% (6635; 6267)
+4690347: mip =   3.710000000e+02 >=   2.880000000e+02  22.4% (6642; 6292)
+4711778: mip =   3.710000000e+02 >=   2.880000000e+02  22.4% (6696; 6363)
+4733611: mip =   3.710000000e+02 >=   2.880000000e+02  22.4% (6738; 6436)
+4756180: mip =   3.710000000e+02 >=   2.880000000e+02  22.4% (6786; 6520)
+4778170: mip =   3.710000000e+02 >=   2.880000000e+02  22.4% (6846; 6562)
+4800116: mip =   3.710000000e+02 >=   2.880000000e+02  22.4% (6924; 6600)
Time used: 1142.5 secs.  Memory used: 64.3 Mb.
+4822229: mip =   3.710000000e+02 >=   2.880000000e+02  22.4% (6979; 6651)
+4844147: mip =   3.710000000e+02 >=   2.880000000e+02  22.4% (7029; 6704)
+4865749: mip =   3.710000000e+02 >=   2.880000000e+02  22.4% (7074; 6754)
+4886367: mip =   3.710000000e+02 >=   2.880000000e+02  22.4% (7109; 6788)
+4908046: mip =   3.710000000e+02 >=   2.880000000e+02  22.4% (7125; 6849)
+4928529: mip =   3.710000000e+02 >=   2.880000000e+02  22.4% (7125; 6891)
+4947702: mip =   3.710000000e+02 >=   2.880000000e+02  22.4% (7118; 6920)
+4968722: mip =   3.710000000e+02 >=   2.880000000e+02  22.4% (7131; 6950)
+4989341: mip =   3.710000000e+02 >=   2.880000000e+02  22.4% (7141; 6968)
+5011109: mip =   3.710000000e+02 >=   2.880000000e+02  22.4% (7165; 7003)
+5033034: mip =   3.710000000e+02 >=   2.890000000e+02  22.1% (7176; 7083)
Time used: 1202.6 secs.  Memory used: 68.3 Mb.
+5055665: mip =   3.710000000e+02 >=   2.890000000e+02  22.1% (7218; 7125)
+5078052: mip =   3.710000000e+02 >=   2.890000000e+02  22.1% (7263; 7184)
+5099759: mip =   3.710000000e+02 >=   2.890000000e+02  22.1% (7284; 7286)
+5121666: mip =   3.710000000e+02 >=   2.890000000e+02  22.1% (7334; 7332)
+5144294: mip =   3.710000000e+02 >=   2.890000000e+02  22.1% (7371; 7376)
+5167220: mip =   3.710000000e+02 >=   2.890000000e+02  22.1% (7412; 7433)
+5189136: mip =   3.710000000e+02 >=   2.890000000e+02  22.1% (7441; 7480)
+5210440: mip =   3.710000000e+02 >=   2.890000000e+02  22.1% (7471; 7519)
+5232830: mip =   3.710000000e+02 >=   2.890000000e+02  22.1% (7523; 7569)
+5255478: mip =   3.710000000e+02 >=   2.890000000e+02  22.1% (7579; 7595)
+5276567: mip =   3.710000000e+02 >=   2.890000000e+02  22.1% (7624; 7635)
+5298445: mip =   3.710000000e+02 >=   2.890000000e+02  22.1% (7655; 7681)
Time used: 1262.6 secs.  Memory used: 73.9 Mb.
+5320212: mip =   3.710000000e+02 >=   2.890000000e+02  22.1% (7709; 7700)
+5342044: mip =   3.710000000e+02 >=   2.890000000e+02  22.1% (7749; 7727)
+5363093: mip =   3.710000000e+02 >=   2.890000000e+02  22.1% (7792; 7763)
+5384716: mip =   3.710000000e+02 >=   2.890000000e+02  22.1% (7822; 7814)
+5405931: mip =   3.710000000e+02 >=   2.890000000e+02  22.1% (7841; 7853)
+5427896: mip =   3.710000000e+02 >=   2.890000000e+02  22.1% (7881; 7888)
+5448606: mip =   3.710000000e+02 >=   2.890000000e+02  22.1% (7904; 7917)
+5468859: mip =   3.710000000e+02 >=   2.890000000e+02  22.1% (7914; 7977)
+5490177: mip =   3.710000000e+02 >=   2.890000000e+02  22.1% (7938; 8038)
+5510338: mip =   3.710000000e+02 >=   2.890000000e+02  22.1% (7928; 8084)
+5530619: mip =   3.710000000e+02 >=   2.890000000e+02  22.1% (7929; 8117)
+5552173: mip =   3.710000000e+02 >=   2.890000000e+02  22.1% (7948; 8161)
Time used: 1322.6 secs.  Memory used: 76.9 Mb.
+5574523: mip =   3.710000000e+02 >=   2.890000000e+02  22.1% (7988; 8201)
+5596213: mip =   3.710000000e+02 >=   2.890000000e+02  22.1% (8022; 8235)
+5616283: mip =   3.710000000e+02 >=   2.890000000e+02  22.1% (8002; 8301)
+5636931: mip =   3.710000000e+02 >=   2.890000000e+02  22.1% (8013; 8355)
+5657210: mip =   3.710000000e+02 >=   2.890000000e+02  22.1% (8023; 8401)
+5676653: mip =   3.710000000e+02 >=   2.890000000e+02  22.1% (7997; 8452)
+5698754: mip =   3.710000000e+02 >=   2.900000000e+02  21.8% (8058; 8493)
+5720472: mip =   3.710000000e+02 >=   2.900000000e+02  21.8% (8084; 8516)
+5741769: mip =   3.710000000e+02 >=   2.900000000e+02  21.8% (8107; 8545)
+5762527: mip =   3.710000000e+02 >=   2.900000000e+02  21.8% (8109; 8595)
+5784330: mip =   3.710000000e+02 >=   2.900000000e+02  21.8% (8155; 8628)
+5807244: mip =   3.710000000e+02 >=   2.900000000e+02  21.8% (8180; 8661)
Time used: 1382.7 secs.  Memory used: 80.2 Mb.
+5830351: mip =   3.710000000e+02 >=   2.900000000e+02  21.8% (8210; 8680)
+5850939: mip =   3.710000000e+02 >=   2.900000000e+02  21.8% (8228; 8706)
+5871908: mip =   3.710000000e+02 >=   2.900000000e+02  21.8% (8261; 8724)
+5893259: mip =   3.710000000e+02 >=   2.900000000e+02  21.8% (8296; 8755)
+5915674: mip =   3.710000000e+02 >=   2.900000000e+02  21.8% (8316; 8777)
+5936594: mip =   3.710000000e+02 >=   2.900000000e+02  21.8% (8338; 8799)
+5957728: mip =   3.710000000e+02 >=   2.900000000e+02  21.8% (8366; 8811)
+5979113: mip =   3.710000000e+02 >=   2.900000000e+02  21.8% (8402; 8829)
+5999626: mip =   3.710000000e+02 >=   2.900000000e+02  21.8% (8426; 8842)
+6021679: mip =   3.710000000e+02 >=   2.900000000e+02  21.8% (8474; 8855)
+6044123: mip =   3.710000000e+02 >=   2.900000000e+02  21.8% (8505; 8873)
+6065585: mip =   3.710000000e+02 >=   2.900000000e+02  21.8% (8529; 8930)
Time used: 1442.8 secs.  Memory used: 83.0 Mb.
+6087748: mip =   3.710000000e+02 >=   2.900000000e+02  21.8% (8566; 8951)
+6110072: mip =   3.710000000e+02 >=   2.900000000e+02  21.8% (8605; 8977)
+6131791: mip =   3.710000000e+02 >=   2.900000000e+02  21.8% (8636; 8996)
+6153866: mip =   3.710000000e+02 >=   2.900000000e+02  21.8% (8692; 9011)
+6176482: mip =   3.710000000e+02 >=   2.900000000e+02  21.8% (8730; 9042)
+6197838: mip =   3.710000000e+02 >=   2.900000000e+02  21.8% (8756; 9066)
+6218404: mip =   3.710000000e+02 >=   2.900000000e+02  21.8% (8788; 9081)
+6240159: mip =   3.710000000e+02 >=   2.900000000e+02  21.8% (8851; 9103)
+6261743: mip =   3.710000000e+02 >=   2.900000000e+02  21.8% (8892; 9146)
+6284725: mip =   3.710000000e+02 >=   2.900000000e+02  21.8% (8922; 9173)
+6306315: mip =   3.710000000e+02 >=   2.900000000e+02  21.8% (8938; 9209)
Time used: 1503.0 secs.  Memory used: 86.7 Mb.
+6328135: mip =   3.710000000e+02 >=   2.900000000e+02  21.8% (8960; 9256)
+6350136: mip =   3.710000000e+02 >=   2.910000000e+02  21.6% (9000; 9320)
+6371413: mip =   3.710000000e+02 >=   2.910000000e+02  21.6% (9035; 9357)
+6392316: mip =   3.710000000e+02 >=   2.910000000e+02  21.6% (9060; 9397)
+6413993: mip =   3.710000000e+02 >=   2.910000000e+02  21.6% (9096; 9431)
+6435436: mip =   3.710000000e+02 >=   2.910000000e+02  21.6% (9137; 9480)
+6456242: mip =   3.710000000e+02 >=   2.910000000e+02  21.6% (9167; 9506)
+6477044: mip =   3.710000000e+02 >=   2.910000000e+02  21.6% (9200; 9536)
+6495519: >>>>>   3.670000000e+02 >=   2.910000000e+02  20.7% (9250; 9572)
+6517017: mip =   3.670000000e+02 >=   2.910000000e+02  20.7% (9071; 10056)
+6537955: mip =   3.670000000e+02 >=   2.910000000e+02  20.7% (9067; 10120)
+6560494: mip =   3.670000000e+02 >=   2.910000000e+02  20.7% (9095; 10150)
Time used: 1563.0 secs.  Memory used: 89.1 Mb.
+6582015: mip =   3.670000000e+02 >=   2.910000000e+02  20.7% (9123; 10176)
+6604150: mip =   3.670000000e+02 >=   2.910000000e+02  20.7% (9151; 10203)
+6625836: mip =   3.670000000e+02 >=   2.910000000e+02  20.7% (9180; 10244)
+6647849: mip =   3.670000000e+02 >=   2.910000000e+02  20.7% (9226; 10284)
+6669801: mip =   3.670000000e+02 >=   2.910000000e+02  20.7% (9271; 10309)
+6691261: mip =   3.670000000e+02 >=   2.910000000e+02  20.7% (9308; 10329)
+6714149: mip =   3.670000000e+02 >=   2.910000000e+02  20.7% (9351; 10361)
+6736816: mip =   3.670000000e+02 >=   2.910000000e+02  20.7% (9378; 10393)
+6757872: mip =   3.670000000e+02 >=   2.910000000e+02  20.7% (9414; 10432)
+6779085: mip =   3.670000000e+02 >=   2.910000000e+02  20.7% (9458; 10481)
+6802166: mip =   3.670000000e+02 >=   2.910000000e+02  20.7% (9509; 10519)
+6823975: mip =   3.670000000e+02 >=   2.910000000e+02  20.7% (9554; 10555)
Time used: 1623.1 secs.  Memory used: 91.6 Mb.
+6846332: mip =   3.670000000e+02 >=   2.910000000e+02  20.7% (9606; 10573)
+6867670: mip =   3.670000000e+02 >=   2.910000000e+02  20.7% (9639; 10586)
+6889529: mip =   3.670000000e+02 >=   2.910000000e+02  20.7% (9686; 10601)
+6912101: mip =   3.670000000e+02 >=   2.910000000e+02  20.7% (9729; 10632)
+6934359: mip =   3.670000000e+02 >=   2.910000000e+02  20.7% (9780; 10667)
+6956617: mip =   3.670000000e+02 >=   2.910000000e+02  20.7% (9817; 10719)
+6978793: mip =   3.670000000e+02 >=   2.910000000e+02  20.7% (9865; 10768)
+7001018: mip =   3.670000000e+02 >=   2.910000000e+02  20.7% (9915; 10798)
+7023987: mip =   3.670000000e+02 >=   2.910000000e+02  20.7% (9953; 10815)
+7045882: mip =   3.670000000e+02 >=   2.910000000e+02  20.7% (10005; 10852)
+7068372: mip =   3.670000000e+02 >=   2.910000000e+02  20.7% (10059; 10868)
+7091048: mip =   3.670000000e+02 >=   2.910000000e+02  20.7% (10093; 10893)
Time used: 1683.1 secs.  Memory used: 96.2 Mb.
+7113697: mip =   3.670000000e+02 >=   2.910000000e+02  20.7% (10139; 10942)
+7135740: mip =   3.670000000e+02 >=   2.910000000e+02  20.7% (10171; 10973)
+7157858: mip =   3.670000000e+02 >=   2.910000000e+02  20.7% (10221; 11003)
+7179998: mip =   3.670000000e+02 >=   2.910000000e+02  20.7% (10249; 11029)
+7202946: mip =   3.670000000e+02 >=   2.910000000e+02  20.7% (10289; 11056)
+7224521: mip =   3.670000000e+02 >=   2.910000000e+02  20.7% (10321; 11067)
+7246381: mip =   3.670000000e+02 >=   2.910000000e+02  20.7% (10358; 11097)
+7268573: mip =   3.670000000e+02 >=   2.910000000e+02  20.7% (10389; 11140)
+7290540: mip =   3.670000000e+02 >=   2.910000000e+02  20.7% (10430; 11179)
+7312549: mip =   3.670000000e+02 >=   2.910000000e+02  20.7% (10452; 11214)
+7335329: mip =   3.670000000e+02 >=   2.910000000e+02  20.7% (10511; 11254)
+7358560: mip =   3.670000000e+02 >=   2.910000000e+02  20.7% (10553; 11279)
Time used: 1743.1 secs.  Memory used: 100.2 Mb.
+7381420: mip =   3.670000000e+02 >=   2.910000000e+02  20.7% (10604; 11303)
+7403434: mip =   3.670000000e+02 >=   2.910000000e+02  20.7% (10642; 11358)
+7425190: mip =   3.670000000e+02 >=   2.910000000e+02  20.7% (10689; 11377)
+7447409: mip =   3.670000000e+02 >=   2.910000000e+02  20.7% (10741; 11397)
+7470199: mip =   3.670000000e+02 >=   2.910000000e+02  20.7% (10772; 11438)
+7491397: mip =   3.670000000e+02 >=   2.910000000e+02  20.7% (10807; 11462)
+7514259: mip =   3.670000000e+02 >=   2.910000000e+02  20.7% (10853; 11498)
+7535455: mip =   3.670000000e+02 >=   2.910000000e+02  20.7% (10874; 11539)
+7558113: mip =   3.670000000e+02 >=   2.910000000e+02  20.7% (10909; 11575)
+7580679: mip =   3.670000000e+02 >=   2.910000000e+02  20.7% (10974; 11632)
+7602729: mip =   3.670000000e+02 >=   2.910000000e+02  20.7% (11013; 11652)
